55419
55 26 397
26 54 967
54 47 491
47 34 702
34 53 396
53 23 388
23 21 176
21 9 1367
9 12 723
12 30 1291
30 4 380
4 18 606
18 42 2089
42 33 4807
33 1 7621
1 27 4123
27 31 4460
31 25 299
25 11 545
11 45 436
45 2 787
2 14 433
14 52 922
52 15 631
15 36 679
36 46 402
46 39 214
39 16 451
16 10 734
10 22 117
22 29 544
29 17 1002
17 48 415
48 49 761
49 19 934
19 32 1127
32 41 362
41 13 686
13 51 644
51 5 736
5 35 323
35 24 296
24 8 881
8 44 383
44 38 690
38 50 1180
50 20 763
20 37 714
37 7 517
7 40 1176
40 43 1279
43 3 1096
3 6 385
6 28 404
28 55 487
